# Instance R211 - 90 dynamic requests - 10 static requests
Dyn   Stat
90    10
ID    RD
2     -1
16    -1
18    -1
31    -1
52    -1
59    -1
69    -1
80    -1
92    -1
95    -1
1     60
3     174
4     238
5     15
6     74
7     61
8     6
9     29
10    74
11    8
12    33
13    50
14    26
15    5
17    245
19    73
20    216
21    11
22    165
23    10
24    38
25    53
26    2
27    1
28    1
29    8
30    58
32    440
33    13
34    65
35    288
36    15
37    323
38    22
39    15
40    108
41    92
42    2
43    392
44    23
45    25
46    66
47    112
48    89
49    138
50    126
51    152
53    58
54    192
55    46
56    279
57    212
58    89
60    326
61    53
62    1
63    18
64    16
65    36
66    12
67    11
68    6
70    301
71    74
72    5
73    5
74    209
75    18
76    9
77    349
78    69
79    183
81    233
82    6
83    14
84    109
85    158
86    63
87    2
88    65
89    402
90    87
91    16
93    110
94    143
96    255
97    272
98    10
99    78
100   252
